50, 691
44, 49
38, 43
12, 17
42, 47
38, 43
26, 31
48, 53
24, 29
46, 51
24, 29
28, 33
14, 19
24, 29
8, 13
50, 55
16, 21
42, 47
10, 15
32, 37
42, 47
30, 35
14, 19
30, 35
14, 19
6, 11
48, 53
20, 25
42, 47
20, 25
36, 41
28, 33
46, 51
32, 37
18, 23
8, 13
16, 21
32, 37
36, 41
20, 25
40, 45
24, 29
18, 23
36, 41
28, 33
4, 9
40, 45
36, 41
4, 9
38, 43
8, 13
